NAME : rnd6_20.tsp
TYPE : TSP
DIMENSION : 20
EDGE_WEIGHT_TYPE : EUC_2D
NODE_COORD_SECTION
1 347 598
2 527 831
3 176 197
4 25 434
5 774 401
6 555 683
7 554 945
8 692 90
9 881 262
10 198 223
11 74 713
12 506 97
13 453 552
14 1000 878
15 299 137
16 412 493
17 186 231
18 346 912
19 668 571
20 725 47
